units           metal
boundary        p ${boundary} p

read_data ${name}.lmp


# --------------------- EAM POTENTIAL ---------------------

pair_style	eam/alloy
pair_coeff * * ${POT} ${Mat}

# --------------------- SETTINGS ---------------------



compute peratom all pe/atom
compute eatoms all reduce sum c_peratom
delete_atoms overlap 0.05 all all


thermo 10
thermo_style custom step pe ke press pxx pyy pzz vol lx lz ly fnorm c_eatoms
dump RESULTS all custom 100000 RESULTS_${c} id type x y z c_peratom 


run 0

variable	a equal atoms
variable	b equal pe
variable    E equal c_eatoms


fix 1 all setforce 0 NULL 0
min_style cg
minimize 1e-8 1e-8 10000 10000


print "RESULT: total energy of $b eV for $a atoms."
print "eatoms $E"
