units           metal
boundary        p s p

read_data ${Mat}_cell_before.lmp


# --------------------- EAM POTENTIAL ---------------------

pair_style	eam/alloy
pair_coeff * * ${POT} ${Mat}

# --------------------- SETTINGS ---------------------



compute peratom all pe/atom
compute eatoms all reduce sum c_peratom



thermo 10
thermo_style custom step pe ke press pxx pyy pzz vol lx lz ly fnorm c_eatoms
dump RESULTS all custom 100000 RESULTS id type x y z


run 0

variable	a equal atoms
variable	b equal pe
variable    E equal c_eatoms


#fix 1 all setforce 0 NULL 0
min_style cg
minimize 1e-8 1e-8 10000 10000


print "RESULT: total energy of $b eV for $a atoms."
print "eatoms $E"
